N = 3;

% matrice di array [SX, SU, DX, GIU]
pezzi = [|
6, 2, 3, 5|  % pezzo con id 1
3, 7, 6, 4|  % pezzo con id 2
8, 9, 3, 2|
6, 8, 0, 8|
1, 3, 6, 9|
3, 9, 6, 7|
6, 1, 5, 8|
6, 6, 2, 9|
2, 9, 7, 1|];
